job_count = 20 ;
duration = [|12, 29, 9, 9|35, 18, 6, 5|37, 14, 10, 7|10, 4, 10, 6|21, 6, 11, 4|4, 5, 17, 2|5, 26, 4, 2|35, 8, 11, 8|25, 17, 7, 9|4, 27, 19, 2|32, 11, 7, 2|6, 19, 2, 6|13, 16, 8, 2|19, 22, 19, 6|19, 25, 8, 7|24, 14, 6, 2|26, 27, 19, 8|36, 12, 17, 5|31, 28, 16, 7|35, 16, 11, 5|] ;
machine_count = 4 ;
cost = [|11, 27, 51, 54|12, 31, 58, 70|11, 28, 32, 74|19, 29, 51, 64|12, 36, 44, 58|12, 28, 41, 43|18, 33, 53, 55|14, 28, 59, 60|15, 39, 50, 45|19, 36, 30, 66|16, 22, 47, 41|13, 34, 38, 75|17, 24, 45, 69|18, 38, 55, 68|11, 33, 52, 54|16, 25, 55, 66|14, 23, 42, 64|10, 21, 54, 77|16, 25, 53, 65|10, 26, 35, 66|] ;
deadline = [42, 42, 42, 42, 42, 42, 42, 42, 42, 42, 42, 42, 42, 42, 42, 42, 42, 42, 42, 42] ;
release = [0, 0, 0, 0, 0, 0, 0, 0, 0, 0, 0, 0, 0, 0, 0, 0, 0, 0, 0, 0] ;
resource = [|2, 2, 2, 2|5, 5, 5, 5|2, 2, 2, 2|5, 5, 5, 5|4, 4, 4, 4|5, 5, 5, 5|2, 2, 2, 2|1, 1, 1, 1|5, 5, 5, 5|1, 1, 1, 1|6, 6, 6, 6|6, 6, 6, 6|2, 2, 2, 2|6, 6, 6, 6|2, 2, 2, 2|5, 5, 5, 5|2, 2, 2, 2|6, 6, 6, 6|3, 3, 3, 3|3, 3, 3, 3|] ;
capacities = [10, 10, 10, 10] ;
